Route 1: 23 48 25 77 21 89 63
Route 2: 19 24 22 18 49 58 75
Route 3: 62 85 51 20 76 83 66
Route 4: 16 9 11 87 86 74 97 59
Route 5: 27 29 34 31 28 26 30 50 93
Route 6: 65 82 99 57 56 84 32 33
Route 7: 64 52 13 10 17 12 15 47 14
Route 8: 67 95 94 80 88 68 96
Route 9: 69 73 90 98 53 78 91
Route 10: 72 61 70 100 7 79 2 55
Route 11: 71 92 81 54 6 4 60
Route 12: 5 45 46 8 3 42 41 37
Route 13: 44 39 36 40 43 35 38 1
Vehicles: 13
Distance: 1941.33
